\ENCODING=ISO-8859-1
\Problem name: inst_14_cut_n12

Maximize
 obj1: 2 x0 + 39 x1 + 41 x2 + 21 x3
Subject To
 c0:     13 x0 + 84 x1 + 51 x2 + 74 x3 + s0 <= 260
 c1:     54 x0 + 5 x1 + 28 x2 + 5 x3 + s1 <= 171
 c2:     95 x0 + 74 x1 + 10 x2 + 45 x3 + s2 <= 251
 c3:     18 x0 + 9 x1 + 86 x2 + 62 x3 + s3 <= 375
 c4:     60 x0 + 69 x1 + 58 x2 + 55 x3 + s4 <= 147
 c5:     34 x0 + 78 x1 + 93 x2 + 39 x3 + s5 <= 339
 c6:     14 x0 + 6 x1 + 100 x2 + 82 x3 + s6 <= 139
 c7:     3 x0 + 47 x1 + 48 x2 + 43 x3 + s7 <= 313
 c8:     85 x0 + 32 x1 + 38 x2 + 26 x3 + s8 <= 165
 c9:     47 x0 + 81 x1 + 79 x2 + 30 x3 + s9 <= 392
 c10:    69 x0 + 92 x1 + 25 x2 + 43 x3 + s10 <= 261
 c11:    16 x0 + 58 x1 + 51 x2 + 90 x3 + s11 <= 352
 c12:    6 x0 + 83 x1 + 87 x2 + 75 x3 + s12 <= 135
 cut_1:  5 x0 + 82 x1 + 85 x2 + 74 x3 <= 133
 cut_2:  5 x0 + 78 x1 + 81 x2 + 70 x3 <= 126
 cut_3:  1.99840144432528e-15 x0 + 8.99999999999999 x1 + 8.99999999999999 x2
         + 8 x3 <= 14
 cut_4:  5 x0 + 74 x1 + 77 x2 + 66 x3 <= 120
 cut_5:  x0 + 14 x1 + 14 x2 + 12 x3 <= 22
 cut_6:  - 1.11022302462516e-15 x0 + 5 x1 + 5 x2 + 4 x3 <= 7.99999999999999
 cut_7:  5 x0 + 77 x1 + 80 x2 + 69 x3 <= 125
 cut_8:  2 x0 + 36 x1 + 37 x2 + 32 x3 <= 58
 cut_9:  3 x0 + 51 x1 + 53 x2 + 46 x3 <= 82
 cut_10: - 1.99840144432528e-15 x0 + 2 x1 + 2 x2 + x3 <= 2.99999999999999
 cut_11: 5 x0 + 74 x1 + 77 x2 + 66 x3 <= 120
 cut_12: x0 + 25 x1 + 26 x2 + 22 x3 <= 40
Bounds
 0 <= x0 <= 1
 0 <= x1 <= 1
 0 <= x2 <= 1
 0 <= x3 <= 1
End
